num_offers = 25;
num_halls = 10;
start=[20,15,24,26,15,53,49,44,22,30,58,3,67,5,59,6,36,13,1,62,14,6,8,34,6];
end=[93,82,85,54,78,54,80,93,80,100,98,81,79,93,85,89,83,17,10,71,53,21,95,52,59];
price=[3797,2539,3624,2263,5245,94,2303,2938,5014,4558,2565,3038,581,4776,2128,5863,3198,321,814,624,3149,1290,2921,1273,3566];
requirement=[398,264,457,937,434,646,370,566,582,851,790,623,364,777,300,666,372,936,844,378,661,677,895,639,471];
capacity=[638,969,414,747,858,915,796,361,589,361];
